8230
18, 49, 42, 7, 2, 30, 23, 22, 31, 1, 32, 36, 39, 40, 38, 5, 6, 4, 28, 27, 26, 47, 13, 14, 52, 11, 51, 12, 25, 46, 16, 29, 50, 20, 44, 34, 35, 37, 48, 24, 15, 43, 33, 10, 9, 8, 41, 19, 45, 3, 17, 21
